As8 Cu12 Te48                            
   1.00000000000000     
     9.6125385216075951    0.0000000000000000   -0.0005893226260799
     0.0000000000000000    5.4858010515058915    0.0000000000000000
    -0.8029432569653856    0.0000000000000000   19.8673402257232858
   As   Cu    Te 
     8    12    48
Direct
  0.6265576996346386  0.7290007650322238  0.3705863975350853
  0.3734423003653614  0.2290007950322262  0.1294136024649147
  0.3734423003653614  0.2709992049677737  0.6294135724649194
  0.6265576996346386  0.7709992349677762  0.8705864275350806
  0.8776217769971171  0.6929983760933397  0.1280109649650628
  0.1223782450028778  0.1929984060933351  0.3719890350349372
  0.1223782450028778  0.3070015939066649  0.8719890650349397
  0.8776217769971171  0.8070016239066603  0.6280109349650603
  0.5857504020859569  0.8540432947385156  0.1525476403229748
  0.4142495979140431  0.3540432947385155  0.3474523446770204
  0.4142495979140431  0.1459567202614893  0.8474523446770205
  0.5857504020859569  0.6459567052614844  0.6525476553229795
  0.1461268614769382  0.9101431545500833  0.1840905663611579
  0.8538731385230620  0.4101431545500834  0.3159094486388398
  0.8538731385230620  0.0898568384499126  0.8159094486388397
  0.1461268614769382  0.5898568454499167  0.6840905513611603
  0.8011922212951973  0.5692781391171384  0.9857769299708652
  0.1988077637048050  0.0692781391171384  0.5142230700291348
  0.1988077637048050  0.4307218608828616  0.0142230430291361
  0.8011922212951973  0.9307218608828616  0.4857769599708606
  0.5302304493470914  0.9150990453357423  0.2166148984930468
  0.4697695506529087  0.4150990453357421  0.2833851165069508
  0.4697695506529087  0.0849009476642608  0.7833850865069484
  0.5302304493470914  0.5849009546642577  0.7166149134930516
  0.5724043834018558  0.6078613108155105  0.1269140134609083
  0.4275955875981453  0.1078613108155105  0.3730859715390940
  0.4275955875981453  0.3921386891844895  0.8730860015390893
  0.5724043834018558  0.8921386891844895  0.6269139984609107
  0.5188492749897854  0.0371417574224548  0.0985128564061314
  0.4811507250102145  0.5371417764224529  0.4014871585938662
  0.4811507250102145  0.9628582235775471  0.9014871585938664
  0.5188492749897854  0.4628582535775496  0.5985128414061336
  0.7426960604334094  0.9282249851999851  0.1513024015705985
  0.2573039695665929  0.4282250151999877  0.3486976134293992
  0.2573039695665929  0.0717749918000165  0.8486976134293992
  0.7426960604334094  0.5717750148000149  0.6513023865706008
  0.1584912702352037  0.1099588133390600  0.2311938708431889
  0.1567344369807511  0.6633731190262515  0.2072473998498868
  0.8432655770192501  0.3366268509737461  0.7927525851501156
  0.1567344369807511  0.8366268809737485  0.7072474148498844
  0.8593696379178642  0.7267581299182180  0.5358138828409156
  0.1406303470821309  0.2267581149182204  0.9641861171590844
  0.1406303470821309  0.2732418700817819  0.4641861171590844
  0.8593696379178642  0.7732418700817820  0.0358138978409133
  0.6576416944006546  0.8106598207948090  0.4613893956483657
  0.3423583355993480  0.3106598207948090  0.0386105933516370
  0.3423583355993480  0.1893401792051910  0.5386105743516391
  0.6576416944006546  0.6893401792051910  0.9613894256483609
  0.7744089280628067  0.1484475862393995  0.5227272347517598
  0.2255910419371907  0.6484475862393994  0.9772727652482402
  0.2255910419371907  0.8515524137606006  0.4772727952482356
  0.7744089280628067  0.3515524137606006  0.0227272137517616
  0.8892302229961083  0.9366012172791792  0.4284522799828947
  0.1107697990038936  0.4366012172791791  0.0715477050171077
  0.1107697990038936  0.0633987907208215  0.5715477200171053
  0.8892302229961083  0.5633987827208208  0.9284522799828947
  0.0033629599960516  0.5534928215725794  0.6417567035364816
  0.9966370690039472  0.0534928105725750  0.8582432964635184
  0.9966370690039472  0.4465071784274205  0.3582433264635209
  0.0033629599960516  0.9465071784274206  0.1417566735364792
  0.2534985970072192  0.5490020649557241  0.6271574727018150
  0.7465013729927783  0.0490020909557193  0.8728425272981850
  0.7465013729927783  0.4509979050442804  0.3728424982981862
  0.2534985970072192  0.9509979350442759  0.1271574867018091
  0.1584912702352037  0.3900411866609400  0.7311938848431900
  0.8415087587648022  0.8900411566609374  0.7688061151568100
  0.8415087587648022  0.6099588433390626  0.2688061151568100
  0.8432655770192501  0.1633731340262563  0.2927526151501108
 
  0.00000000E+00  0.00000000E+00  0.00000000E+00
  0.00000000E+00  0.00000000E+00  0.00000000E+00
  0.00000000E+00  0.00000000E+00  0.00000000E+00
  0.00000000E+00  0.00000000E+00  0.00000000E+00
  0.00000000E+00  0.00000000E+00  0.00000000E+00
  0.00000000E+00  0.00000000E+00  0.00000000E+00
  0.00000000E+00  0.00000000E+00  0.00000000E+00
  0.00000000E+00  0.00000000E+00  0.00000000E+00
  0.00000000E+00  0.00000000E+00  0.00000000E+00
  0.00000000E+00  0.00000000E+00  0.00000000E+00
  0.00000000E+00  0.00000000E+00  0.00000000E+00
  0.00000000E+00  0.00000000E+00  0.00000000E+00
  0.00000000E+00  0.00000000E+00  0.00000000E+00
  0.00000000E+00  0.00000000E+00  0.00000000E+00
  0.00000000E+00  0.00000000E+00  0.00000000E+00
  0.00000000E+00  0.00000000E+00  0.00000000E+00
  0.00000000E+00  0.00000000E+00  0.00000000E+00
  0.00000000E+00  0.00000000E+00  0.00000000E+00
  0.00000000E+00  0.00000000E+00  0.00000000E+00
  0.00000000E+00  0.00000000E+00  0.00000000E+00
  0.00000000E+00  0.00000000E+00  0.00000000E+00
  0.00000000E+00  0.00000000E+00  0.00000000E+00
  0.00000000E+00  0.00000000E+00  0.00000000E+00
  0.00000000E+00  0.00000000E+00  0.00000000E+00
  0.00000000E+00  0.00000000E+00  0.00000000E+00
  0.00000000E+00  0.00000000E+00  0.00000000E+00
  0.00000000E+00  0.00000000E+00  0.00000000E+00
  0.00000000E+00  0.00000000E+00  0.00000000E+00
  0.00000000E+00  0.00000000E+00  0.00000000E+00
  0.00000000E+00  0.00000000E+00  0.00000000E+00
  0.00000000E+00  0.00000000E+00  0.00000000E+00
  0.00000000E+00  0.00000000E+00  0.00000000E+00
  0.00000000E+00  0.00000000E+00  0.00000000E+00
  0.00000000E+00  0.00000000E+00  0.00000000E+00
  0.00000000E+00  0.00000000E+00  0.00000000E+00
  0.00000000E+00  0.00000000E+00  0.00000000E+00
  0.00000000E+00  0.00000000E+00  0.00000000E+00
  0.00000000E+00  0.00000000E+00  0.00000000E+00
  0.00000000E+00  0.00000000E+00  0.00000000E+00
  0.00000000E+00  0.00000000E+00  0.00000000E+00
  0.00000000E+00  0.00000000E+00  0.00000000E+00
  0.00000000E+00  0.00000000E+00  0.00000000E+00
  0.00000000E+00  0.00000000E+00  0.00000000E+00
  0.00000000E+00  0.00000000E+00  0.00000000E+00
  0.00000000E+00  0.00000000E+00  0.00000000E+00
  0.00000000E+00  0.00000000E+00  0.00000000E+00
  0.00000000E+00  0.00000000E+00  0.00000000E+00
  0.00000000E+00  0.00000000E+00  0.00000000E+00
  0.00000000E+00  0.00000000E+00  0.00000000E+00
  0.00000000E+00  0.00000000E+00  0.00000000E+00
  0.00000000E+00  0.00000000E+00  0.00000000E+00
  0.00000000E+00  0.00000000E+00  0.00000000E+00
  0.00000000E+00  0.00000000E+00  0.00000000E+00
  0.00000000E+00  0.00000000E+00  0.00000000E+00
  0.00000000E+00  0.00000000E+00  0.00000000E+00
  0.00000000E+00  0.00000000E+00  0.00000000E+00
  0.00000000E+00  0.00000000E+00  0.00000000E+00
  0.00000000E+00  0.00000000E+00  0.00000000E+00
  0.00000000E+00  0.00000000E+00  0.00000000E+00
  0.00000000E+00  0.00000000E+00  0.00000000E+00
  0.00000000E+00  0.00000000E+00  0.00000000E+00
  0.00000000E+00  0.00000000E+00  0.00000000E+00
  0.00000000E+00  0.00000000E+00  0.00000000E+00
  0.00000000E+00  0.00000000E+00  0.00000000E+00
  0.00000000E+00  0.00000000E+00  0.00000000E+00
  0.00000000E+00  0.00000000E+00  0.00000000E+00
  0.00000000E+00  0.00000000E+00  0.00000000E+00
  0.00000000E+00  0.00000000E+00  0.00000000E+00
