diamond Si:
 5.5
 0.0 0.5 0.5
 0.5 0.0 0.5
 0.5 0.5 0.0
   2
cartesian
-0.125 -0.125 -0.125
0.125 0.125 0.125