System = Cu-As-Te
ISTART = 0 ; ICHARG = 2
ENCUT = 300
ISMEAR = 0; SIGMA = 0.1
NSW = 5
IBRION = 2
ISIF = 3
LREAL = .TRUE.
LPLANE - .FALSE.
NPAR = 6
NSIM = 1
ISYM=2
LCHARG=F
