fcc Si:                                 
   3.9     
     0.4450880861535205    0.4450880861535205   -0.0000000000000000
     0.0000000000000000    0.4450880861535205    0.4450880861535205
     0.4450880861535205    0.0000000000000000    0.4450880861535205
   Si
     1
Direct
  0.0000000000000000  0.0000000000000000  0.0000000000000000
 
  0.00000000E+00  0.00000000E+00  0.00000000E+00
